c Generated with https://cnfgen.readthedocs.io/en/stable/cnfformula.families.pigeonhole.html
c PHP(4,3): 4 pigeons, 3 holes. UNSAT.
c Variables: p[i][j] = (i-1)*3 + j, pigeon i in hole j.
c   Pigeon 1: 1(h1) 2(h2) 3(h3)
c   Pigeon 2: 4(h1) 5(h2) 6(h3)
c   Pigeon 3: 7(h1) 8(h2) 9(h3)
c   Pigeon 4: 10(h1) 11(h2) 12(h3)
p cnf 12 22
c at least one per pigeon
1 2 3 0
4 5 6 0
7 8 9 0
10 11 12 0
c at most one per hole (hole 1: vars 1,4,7,10)
-1 -4 0
-1 -7 0
-1 -10 0
-4 -7 0
-4 -10 0
-7 -10 0
c at most one per hole (hole 2: vars 2,5,8,11)
-2 -5 0
-2 -8 0
-2 -11 0
-5 -8 0
-5 -11 0
-8 -11 0
c at most one per hole (hole 3: vars 3,6,9,12)
-3 -6 0
-3 -9 0
-3 -12 0
-6 -9 0
-6 -12 0
-9 -12 0
