c adder_miter_4bit: equivalence check of two 4-bit adders
p cnf 60 191
-10 1 5 0
-10 -1 -5 0
10 -1 5 0
10 1 -5 0
-11 10 9 0
-11 -10 -9 0
11 -10 9 0
11 10 -9 0
-12 1 0
-12 5 0
12 -1 -5 0
-13 10 0
-13 9 0
13 -10 -9 0
14 -12 0
14 -13 0
-14 12 13 0
-15 2 6 0
-15 -2 -6 0
15 -2 6 0
15 2 -6 0
-16 15 14 0
-16 -15 -14 0
16 -15 14 0
16 15 -14 0
-17 2 0
-17 6 0
17 -2 -6 0
-18 15 0
-18 14 0
18 -15 -14 0
19 -17 0
19 -18 0
-19 17 18 0
-20 3 7 0
-20 -3 -7 0
20 -3 7 0
20 3 -7 0
-21 20 19 0
-21 -20 -19 0
21 -20 19 0
21 20 -19 0
-22 3 0
-22 7 0
22 -3 -7 0
-23 20 0
-23 19 0
23 -20 -19 0
24 -22 0
24 -23 0
-24 22 23 0
-25 4 8 0
-25 -4 -8 0
25 -4 8 0
25 4 -8 0
-26 25 24 0
-26 -25 -24 0
26 -25 24 0
26 25 -24 0
-27 4 0
-27 8 0
27 -4 -8 0
-28 25 0
-28 24 0
28 -25 -24 0
29 -27 0
29 -28 0
-29 27 28 0
-30 1 0
-30 5 0
30 -1 -5 0
-31 2 0
-31 6 0
31 -2 -6 0
-32 3 0
-32 7 0
32 -3 -7 0
-33 4 0
-33 8 0
33 -4 -8 0
-34 1 5 0
-34 -1 -5 0
34 -1 5 0
34 1 -5 0
-35 2 6 0
-35 -2 -6 0
35 -2 6 0
35 2 -6 0
-36 3 7 0
-36 -3 -7 0
36 -3 7 0
36 3 -7 0
-37 4 8 0
-37 -4 -8 0
37 -4 8 0
37 4 -8 0
-38 34 0
-38 9 0
38 -34 -9 0
39 -30 0
39 -38 0
-39 30 38 0
-40 35 0
-40 30 0
40 -35 -30 0
-41 34 0
-41 35 0
-41 9 0
41 -34 -35 -9 0
42 -31 0
42 -40 0
42 -41 0
-42 31 40 41 0
-43 36 0
-43 31 0
43 -36 -31 0
-44 35 0
-44 36 0
-44 30 0
44 -35 -36 -30 0
-45 34 0
-45 35 0
-45 36 0
-45 9 0
45 -34 -35 -36 -9 0
46 -32 0
46 -43 0
46 -44 0
46 -45 0
-46 32 43 44 45 0
-47 37 0
-47 32 0
47 -37 -32 0
-48 36 0
-48 37 0
-48 31 0
48 -36 -37 -31 0
-49 35 0
-49 36 0
-49 37 0
-49 30 0
49 -35 -36 -37 -30 0
-50 34 0
-50 35 0
-50 36 0
-50 37 0
-50 9 0
50 -34 -35 -36 -37 -9 0
51 -33 0
51 -47 0
51 -48 0
51 -49 0
51 -50 0
-51 33 47 48 49 50 0
-52 34 9 0
-52 -34 -9 0
52 -34 9 0
52 34 -9 0
-53 35 39 0
-53 -35 -39 0
53 -35 39 0
53 35 -39 0
-54 36 42 0
-54 -36 -42 0
54 -36 42 0
54 36 -42 0
-55 37 46 0
-55 -37 -46 0
55 -37 46 0
55 37 -46 0
-56 11 52 0
-56 -11 -52 0
56 -11 52 0
56 11 -52 0
-57 16 53 0
-57 -16 -53 0
57 -16 53 0
57 16 -53 0
-58 21 54 0
-58 -21 -54 0
58 -21 54 0
58 21 -54 0
-59 26 55 0
-59 -26 -55 0
59 -26 55 0
59 26 -55 0
-60 29 51 0
-60 -29 -51 0
60 -29 51 0
60 29 -51 0
56 57 58 59 60 0
